p cnf 16 108
-9 2 5 6 8 9 10 11 13 14 15 16 0
-11 -4 -16 -15 16 11 4 15 0
-10 -13 -11 -14 -6 -16 -12 -2 1 2 4 6 10 11 12 13 14 16 0
 1 2 4 9 10 11 12 13 14 0
-12 -11 -14 -2 -16 -13 -5 -10 2 3 4 5 7 8 9 10 11 12 13 14 15 16 0
-13 -15 -5 -1 -4 -16 -11 -8 -3 1 2 3 4 5 8 11 12 13 14 15 16 0
-15 -7 16 1 15 7 0
-10 -5 -13 1 2 5 7 8 9 10 12 13 14 15 16 0
-8 -6 -10 -2 1 2 5 6 7 8 9 10 12 16 0
-13 -9 -10 -14 -7 -2 -6 2 6 7 9 10 13 14 0
-13 3 7 8 10 13 14 15 0
-13 -11 -6 -14 -8 1 2 3 5 6 7 8 9 10 11 12 13 14 16 0
 1 3 4 5 6 7 9 10 11 14 15 16 0
-13 -3 -12 1 3 8 12 13 0
 8 9 5 7 0
-15 -9 -5 -3 1 2 3 4 5 6 7 8 9 10 11 12 13 14 15 16 0
-11 -14 -8 -1 -5 -12 -4 -9 -2 -7 -3 -15 -10 1 2 3 4 5 6 7 8 9 10 11 12 13 14 15 16 0
 1 2 3 5 6 7 8 9 11 12 14 15 16 0
-16 -5 16 5 0
 13 5 7 0
-12 -6 -5 -16 2 5 6 7 12 15 16 0
-5 -14 -9 -8 -10 -2 -7 -12 -16 -3 1 2 3 5 7 8 9 10 12 14 16 0
-9 -4 9 4 0
-10 -13 -11 -3 -4 -8 -12 -1 -15 -2 1 2 3 4 5 6 8 10 11 12 13 15 16 0
-5 -1 -6 1 2 3 5 6 11 13 15 0
 16 9 13 14 0
-1 -7 -8 -13 -15 -9 -14 -11 -16 -2 -10 -6 -3 1 2 3 6 7 8 9 10 11 13 14 15 16 0
-11 -6 11 6 0
-5 -15 -12 -4 -8 1 2 3 4 5 6 7 8 9 11 12 14 15 16 0
-6 -13 -9 -3 -1 -12 1 3 6 9 12 13 16 0
 9 3 5 15 0
-15 -9 -16 -4 3 4 6 7 9 10 11 12 13 14 15 16 0
-5 -1 -7 -4 -6 -2 1 2 4 5 6 7 11 0
-13 -6 -15 4 6 7 13 15 0
-15 -16 -13 -1 -14 -2 -3 -6 -8 1 2 3 4 6 7 8 9 11 12 13 14 15 16 0
-7 2 4 5 7 10 0
-16 -14 -5 -12 -15 -13 -2 2 5 12 13 14 15 16 0
-9 -15 -8 -5 1 3 4 5 8 9 15 16 0
-10 -12 -2 -15 -1 -14 -11 -16 -8 -7 -5 -13 -3 1 2 3 4 5 6 7 8 9 10 11 12 13 14 15 16 0
-3 -8 -5 -16 -1 -13 -7 -4 -2 -12 1 2 3 4 5 6 7 8 9 10 11 12 13 14 15 16 0
 2 13 0
-2 -1 1 2 4 6 8 11 12 15 16 0
-5 -9 -13 -12 -16 -15 -6 -11 1 2 3 4 5 6 8 9 10 11 12 13 15 16 0
-7 -13 -16 -5 -6 -15 -2 1 2 3 4 5 6 7 8 9 10 11 12 13 14 15 16 0
 10 0
-1 -3 -9 -2 1 2 3 9 13 0
-7 -14 -13 -5 -11 1 2 3 5 7 9 11 12 13 14 16 0
-15 -7 -16 -8 -13 -14 -9 -10 -6 -12 -2 -1 1 2 6 7 8 9 10 12 13 14 15 16 0
 4 6 7 8 11 12 13 14 15 16 0
-6 -3 -12 -5 3 12 5 6 0
-5 -16 -2 -15 -9 -3 -10 -1 -12 1 2 3 4 5 6 7 8 9 10 11 12 13 14 15 16 0
-5 16 5 0
-14 -15 -5 -8 -2 -6 -11 -13 -3 -10 -9 -7 -12 -4 1 2 3 4 5 6 7 8 9 10 11 12 13 14 15 0
-14 -16 -2 -7 2 3 4 7 9 10 14 16 0
-1 -14 -5 1 5 14 0
-10 2 4 5 7 8 10 12 13 14 15 0
-16 -1 -5 -6 -3 -2 -12 1 2 3 4 5 6 9 11 12 15 16 0
 1 2 3 4 5 6 7 8 9 10 12 13 14 15 16 0
-15 -5 -1 -13 -3 -7 -2 -16 -10 -9 -12 -14 -8 1 2 3 5 7 8 9 10 11 12 13 14 15 16 0
-8 -15 -16 1 2 5 6 8 9 10 11 12 14 15 16 0
-13 1 3 4 5 6 7 8 10 11 12 13 15 0
 10 0
-14 1 2 3 7 8 9 10 11 13 14 16 0
-12 -7 -15 -14 -11 -9 3 5 7 9 11 12 13 14 15 0
-2 -1 -15 1 2 6 13 15 0
 16 1 6 9 11 12 0
 1 3 4 5 8 9 13 14 16 0
-13 13 11 12 5 0
-1 -9 -3 1 2 3 5 7 8 9 10 14 15 16 0
-14 -13 13 14 0
-16 -7 -12 -3 -14 -9 -8 -2 -5 -13 -10 -1 1 2 3 4 5 7 8 9 10 12 13 14 16 0
-6 8 10 14 6 0
 9 11 13 0
-4 -14 -2 -5 -8 -15 2 4 5 7 8 11 14 15 16 0
-12 -2 -11 -4 -9 2 3 4 6 9 11 12 0
-7 -6 3 5 6 7 9 10 14 0
-1 -7 -11 -5 -4 -10 -14 -16 -6 -2 -9 1 2 4 5 6 7 9 10 11 14 16 0
-12 -8 -16 8 10 12 15 16 0
-1 1 2 3 4 5 6 7 9 10 11 12 13 14 15 16 0
-3 -14 -1 -13 -9 -4 -11 -16 -2 -5 -12 -7 1 2 3 4 5 7 9 11 12 13 14 16 0
-12 -9 -13 -5 -7 -8 -1 -15 1 2 5 6 7 8 9 12 13 15 0
-12 -16 -1 -14 -15 1 2 3 4 6 12 14 15 16 0
-4 -14 -1 -3 -9 -11 -6 -5 -2 1 2 3 4 5 6 8 9 10 11 12 13 14 15 16 0
-3 -8 -14 8 3 14 0
-4 -1 -11 11 1 3 4 0
-16 -7 -6 -3 -10 3 6 7 10 16 0
-4 -3 -6 -1 1 2 3 4 6 8 0
-4 -13 -1 -3 -10 -11 -15 -7 -14 -6 -2 -16 1 2 3 4 6 7 8 9 10 11 12 13 14 15 16 0
-14 -8 -12 -4 -2 -11 -6 -13 -15 -3 -7 -5 -1 1 2 3 4 5 6 7 8 9 10 11 12 13 14 15 16 0
-10 -5 -7 -9 2 4 5 6 7 9 10 12 13 14 15 16 0
-12 -8 -5 -9 -2 -6 -16 -11 -10 1 2 3 4 5 6 7 8 9 10 11 12 13 15 16 0
-14 -10 -3 -8 -12 -13 1 2 3 4 5 7 8 9 10 12 13 14 16 0
-3 -16 -13 -11 1 2 3 4 5 6 8 9 10 11 12 13 14 15 16 0
 3 4 6 7 8 9 10 11 13 14 16 0
-9 -13 -14 -10 -7 -6 -3 -5 3 4 5 6 7 8 9 10 13 14 15 0
-9 4 5 7 8 9 10 12 13 14 15 0
 5 6 7 9 10 11 12 14 15 16 0
-3 -11 -2 -7 -8 -15 -4 1 2 3 4 6 7 8 10 11 14 15 0
-9 -13 -5 -14 -4 -10 -15 -8 -3 -1 -2 -6 -7 -16 -11 1 2 3 4 5 6 7 8 9 10 11 12 13 14 15 16 0
-6 -15 -10 -13 4 6 7 10 13 15 0
-7 2 7 0
-5 -14 -7 -12 -1 -6 1 2 5 6 7 12 14 0
-10 -15 -13 10 13 15 0
-16 16 9 2 6 0
